param n := 19 ; /* 看護師数 */
param d := 28 ; /* 月の日数 */
param s := 5 ; /* 資格の数    */
param l := 5 ; /* 制限の数 */


/* 各日が平日か土日祝日か*/
param daytype  :=
1 1
2 2
3 2
4 1
5 1
6 1
7 1
8 1
9 2
10 2
11 2
12 1
13 1
14 1
15 1
16 2
17 2
18 1
19 1
20 1
21 1
22 1
23 2
24 2
25 1
26 1
27 1
28 1
;

/* 看護師がもつ資格 */
param role : 1 2 3 4 5 :=
1  0 1 0 0 0
2  1 1 0 1 0
3  1 1 0 0 1
4  0 1 0 1 0
5  0 1 1 1 0
6  0 1 0 1 0
7  1 1 0 1 0
8  1 1 1 1 0
9  0 0 0 1 1
10  1 1 0 1 1
11  0 1 0 0 1
12  0 1 0 0 1
13  0 1 0 0 1
14  1 1 0 0 1
15  0 1 0 0 1
16  0 1 0 0 1
17  0 1 0 0 1
18  0 1 0 0 1
19  0 1 0 0 1;

/* 看護師の勤務制限 */
param limit : 1 2 3 4 5 :=
1 8 20 2 2 1
 2 8 20 2 2 1
 3 8 20 2 2 1
 4 8 20 4 4 1
 5 8 20 4 4 1
 6 8 20 4 4 1
 7 8 20 4 4 1
 8 8 20 4 4 1
 9 8 20 4 4 1
 10 8 20 4 4 1
 11 8 20 4 4 1
 12 8 20 4 4 1
 13 8 20 4 4 1
 14 8 20 4 4 1
 15 8 20 4 4 1
 16 8 20 4 4 1
 17 8 20 4 4 1
 18 8 20 4 4 1
 19 8 20 4 4 1
 ;

/* 平土日祝、日準深,資格毎の必要人数 */
param need := 
[1,1,1] 0
[1,1,2] 9
[1,1,3] 0
[1,1,4] 1
[1,1,5] 1
[1,2,1] 1
[1,2,2] 2
[1,2,3] 0
[1,2,4] 1
[1,2,5] 1
[1,3,1] 1
[1,3,2] 2
[1,3,3] 0
[1,3,4] 1
[1,3,5] 1
[2,1,1] 0
[2,1,2] 6
[2,1,3] 0
[2,1,4] 1
[2,1,5] 1
[2,2,1] 1
[2,2,2] 2
[2,2,3] 0
[2,2,4] 1
[2,2,5] 1
[2,3,1] 1
[2,3,2] 2
[2,3,3] 0
[2,3,4] 1
[2,3,5] 1
;

end ;
